; Start decls (53)
(declare-fun b10 () (_ FloatingPoint 8 24))
(declare-fun b101 () (_ FloatingPoint 8 24))
(declare-fun b104 () (_ FloatingPoint 8 24))
(declare-fun b107 () (_ FloatingPoint 8 24))
(declare-fun b11 () (_ FloatingPoint 8 24))
(declare-fun b110 () (_ FloatingPoint 8 24))
(declare-fun b113 () (_ FloatingPoint 8 24))
(declare-fun b116 () (_ FloatingPoint 8 24))
(declare-fun b119 () (_ FloatingPoint 8 24))
(declare-fun b122 () (_ FloatingPoint 8 24))
(declare-fun b125 () (_ FloatingPoint 8 24))
(declare-fun b128 () (_ FloatingPoint 8 24))
(declare-fun b131 () (_ FloatingPoint 8 24))
(declare-fun b134 () (_ FloatingPoint 8 24))
(declare-fun b137 () (_ FloatingPoint 8 24))
(declare-fun b14 () (_ FloatingPoint 8 24))
(declare-fun b140 () (_ FloatingPoint 8 24))
(declare-fun b143 () (_ FloatingPoint 8 24))
(declare-fun b146 () (_ FloatingPoint 8 24))
(declare-fun b149 () (_ FloatingPoint 8 24))
(declare-fun b152 () (_ FloatingPoint 8 24))
(declare-fun b155 () (_ FloatingPoint 8 24))
(declare-fun b158 () (_ FloatingPoint 8 24))
(declare-fun b161 () (_ FloatingPoint 8 24))
(declare-fun b17 () (_ FloatingPoint 8 24))
(declare-fun b20 () (_ FloatingPoint 8 24))
(declare-fun b23 () (_ FloatingPoint 8 24))
(declare-fun b26 () (_ FloatingPoint 8 24))
(declare-fun b270 () (_ FloatingPoint 8 24))
(declare-fun b29 () (_ FloatingPoint 8 24))
(declare-fun b32 () (_ FloatingPoint 8 24))
(declare-fun b35 () (_ FloatingPoint 8 24))
(declare-fun b38 () (_ FloatingPoint 8 24))
(declare-fun b41 () (_ FloatingPoint 8 24))
(declare-fun b44 () (_ FloatingPoint 8 24))
(declare-fun b47 () (_ FloatingPoint 8 24))
(declare-fun b50 () (_ FloatingPoint 8 24))
(declare-fun b53 () (_ FloatingPoint 8 24))
(declare-fun b56 () (_ FloatingPoint 8 24))
(declare-fun b59 () (_ FloatingPoint 8 24))
(declare-fun b62 () (_ FloatingPoint 8 24))
(declare-fun b65 () (_ FloatingPoint 8 24))
(declare-fun b68 () (_ FloatingPoint 8 24))
(declare-fun b71 () (_ FloatingPoint 8 24))
(declare-fun b74 () (_ FloatingPoint 8 24))
(declare-fun b77 () (_ FloatingPoint 8 24))
(declare-fun b80 () (_ FloatingPoint 8 24))
(declare-fun b83 () (_ FloatingPoint 8 24))
(declare-fun b86 () (_ FloatingPoint 8 24))
(declare-fun b89 () (_ FloatingPoint 8 24))
(declare-fun b92 () (_ FloatingPoint 8 24))
(declare-fun b95 () (_ FloatingPoint 8 24))
(declare-fun b98 () (_ FloatingPoint 8 24))
; End decls
; Start constraints (2)
(assert (let ((a!1 (fp.div roundNearestTiesToEven
                   (fp.div roundNearestTiesToEven
                           (fp.div roundNearestTiesToEven
                                   (fp.div roundNearestTiesToEven b10 b11)
                                   b14)
                           b17)
                   b20)))
(let ((a!2 (fp.div roundNearestTiesToEven
                   (fp.div roundNearestTiesToEven
                           (fp.div roundNearestTiesToEven
                                   (fp.div roundNearestTiesToEven a!1 b23)
                                   b26)
                           b29)
                   b32)))
(let ((a!3 (fp.div roundNearestTiesToEven
                   (fp.div roundNearestTiesToEven
                           (fp.div roundNearestTiesToEven
                                   (fp.div roundNearestTiesToEven a!2 b35)
                                   b38)
                           b41)
                   b44)))
(let ((a!4 (fp.div roundNearestTiesToEven
                   (fp.div roundNearestTiesToEven
                           (fp.div roundNearestTiesToEven
                                   (fp.div roundNearestTiesToEven a!3 b47)
                                   b50)
                           b53)
                   b56)))
(let ((a!5 (fp.div roundNearestTiesToEven
                   (fp.div roundNearestTiesToEven
                           (fp.div roundNearestTiesToEven
                                   (fp.div roundNearestTiesToEven a!4 b59)
                                   b62)
                           b65)
                   b68)))
(let ((a!6 (fp.div roundNearestTiesToEven
                   (fp.div roundNearestTiesToEven
                           (fp.div roundNearestTiesToEven
                                   (fp.div roundNearestTiesToEven a!5 b71)
                                   b74)
                           b77)
                   b80)))
(let ((a!7 (fp.div roundNearestTiesToEven
                   (fp.div roundNearestTiesToEven
                           (fp.div roundNearestTiesToEven
                                   (fp.div roundNearestTiesToEven a!6 b83)
                                   b86)
                           b89)
                   b92)))
(let ((a!8 (fp.div roundNearestTiesToEven
                   (fp.div roundNearestTiesToEven
                           (fp.div roundNearestTiesToEven
                                   (fp.div roundNearestTiesToEven a!7 b95)
                                   b98)
                           b101)
                   b104)))
(let ((a!9 (fp.div roundNearestTiesToEven
                   (fp.div roundNearestTiesToEven
                           (fp.div roundNearestTiesToEven
                                   (fp.div roundNearestTiesToEven a!8 b107)
                                   b110)
                           b113)
                   b116)))
(let ((a!10 (fp.div roundNearestTiesToEven
                    (fp.div roundNearestTiesToEven
                            (fp.div roundNearestTiesToEven
                                    (fp.div roundNearestTiesToEven a!9 b119)
                                    b122)
                            b125)
                    b128)))
(let ((a!11 (fp.div roundNearestTiesToEven
                    (fp.div roundNearestTiesToEven
                            (fp.div roundNearestTiesToEven
                                    (fp.div roundNearestTiesToEven a!10 b131)
                                    b134)
                            b137)
                    b140)))
(let ((a!12 (fp.div roundNearestTiesToEven
                    (fp.div roundNearestTiesToEven
                            (fp.div roundNearestTiesToEven
                                    (fp.div roundNearestTiesToEven a!11 b143)
                                    b146)
                            b149)
                    b152)))
  (and (fp.lt b11 b161)
       (fp.lt (fp.div roundNearestTiesToEven
                      (fp.div roundNearestTiesToEven a!12 b155)
                      b158)
              b161)
       (fp.lt b270 b11)
       (fp.lt b14 b161)
       (fp.lt b270 b14)
       (fp.lt b17 b161)
       (fp.lt b270 b17)
       (fp.lt b20 b161)
       (fp.lt b270 b20)
       (fp.lt b23 b161)
       (fp.lt b270 b23)
       (fp.lt b26 b161)
       (fp.lt b270 b26)
       (fp.lt b29 b161)
       (fp.lt b270 b29)
       (fp.lt b32 b161)
       (fp.lt b270 b32)
       (fp.lt b35 b161)
       (fp.lt b270 b35)
       (fp.lt b38 b161)
       (fp.lt b270 b38)
       (fp.lt b41 b161)
       (fp.lt b270 b41)
       (fp.lt b44 b161)
       (fp.lt b270 b44)
       (fp.lt b47 b161)
       (fp.lt b270 b47)
       (fp.lt b50 b161)
       (fp.lt b270 b50)
       (fp.lt b53 b161)
       (fp.lt b270 b53)
       (fp.lt b56 b161)
       (fp.lt b270 b56)
       (fp.lt b59 b161)
       (fp.lt b270 b59)
       (fp.lt b62 b161)
       (fp.lt b270 b62)
       (fp.lt b65 b161)
       (fp.lt b270 b65)
       (fp.lt b68 b161)
       (fp.lt b270 b68)
       (fp.lt b71 b161)
       (fp.lt b270 b71)
       (fp.lt b74 b161)
       (fp.lt b270 b74)
       (fp.lt b77 b161)
       (fp.lt b270 b77)
       (fp.lt b80 b161)
       (fp.lt b270 b80)
       (fp.lt b83 b161)
       (fp.lt b270 b83)
       (fp.lt b86 b161)
       (fp.lt b270 b86)
       (fp.lt b89 b161)
       (fp.lt b270 b89)
       (fp.lt b92 b161)
       (fp.lt b270 b92)
       (fp.lt b95 b161)
       (fp.lt b270 b95)
       (fp.lt b98 b161)
       (fp.lt b270 b98)
       (fp.lt b101 b161)
       (fp.lt b270 b101)
       (fp.lt b104 b161)
       (fp.lt b270 b104)
       (fp.lt b107 b161)
       (fp.lt b270 b107)
       (fp.lt b110 b161)
       (fp.lt b270 b110)
       (fp.lt b113 b161)
       (fp.lt b270 b113)
       (fp.lt b116 b161)
       (fp.lt b270 b116)
       (fp.lt b119 b161)
       (fp.lt b270 b119)
       (fp.lt b122 b161)
       (fp.lt b270 b122)
       (fp.lt b125 b161)
       (fp.lt b270 b125)
       (fp.lt b128 b161)
       (fp.lt b270 b128)
       (fp.lt b131 b161)
       (fp.lt b270 b131)
       (fp.lt b134 b161)
       (fp.lt b270 b134)
       (fp.lt b137 b161)
       (fp.lt b270 b137)
       (fp.lt b140 b161)
       (fp.lt b270 b140)
       (fp.lt b143 b161)
       (fp.lt b270 b143)
       (fp.lt b146 b161)
       (fp.lt b270 b146)
       (fp.lt b149 b161)
       (fp.lt b270 b149)
       (fp.lt b152 b161)
       (fp.lt b270 b152)
       (fp.lt b155 b161)
       (fp.lt b270 b155)
       (fp.lt b158 b161)))))))))))))))
(assert (fp.lt b270 b158))
